Name: 100lvl
Courses: 90
Rooms: 18
Days: 6
Periods_per_day: 8
Curricula: 27


COURSES:
BIO102 3 3 2 1152 NORM
BIO108 1 1 1 1086 PRAC
CHM102 2 3 2 1304 NORM
CHM104 2 1 1 1177 NORM
CHM108 1 2 2 1107 PRAC
PHY102 3 3 2 1353 NORM
PHY108 1 1 1 1202 PRAC
GST102 2 1 1 2879 NORM
GST106 2 1 1 2817 NORM
ADE102 2 2 2 55 NORM
ADE104 2 2 3 55 NORM
ADE106 2 2 2 55 NORM
EDU102 2 3 1 301 NORM
EDU104 2 2 1 301 NORM
LIS102 2 1 2 80 NORM
LIS104 2 2 3 80 NORM
LIS106 2 1 3 80 NORM
LIS108 2 1 2 80 NORM
LIS110 3 2 2 80 NORM
HED102 2 1 2 27 NORM
HED104 2 2 3 27 NORM
HED106 2 1 2 27 NORM
HED108 2 2 2 27 NORM
PED102 2 2 3 9 NORM
PED104 2 1 2 9 NORM
PED106 2 1 1 9 NORM
PED108 2 2 2 9 NORM
MTH102 3 3 2 1344 NORM
MTH104 3 2 2 221 NORM
CSC102 3 2 2 101 NORM
CSC104 2 2 3 210 NORM
STA112 4 3 3 144 NORM
STA122 3 2 2 50 NORM
STA164 2 2 1 9 NORM
HTM112 2 1 2 26 NORM
HTM114 2 1 2 26 NORM
HTM116 2 1 3 27 NORM
ACC102 3 3 3 554 NORM
ACC104 3 2 2 110 NORM
BAF102 2 2 2 187 NORM
BAF104 3 2 3 91 NORM
BUS102 2 2 3 492 NORM
BUS104 3 1 2 92 NORM
ECO102 3 2 3 717 NORM
ECO104 3 2 2 94 NORM
ECO106 3 2 2 105 NORM
ENG102 2 1 2 105 NORM
ENG104 2 1 2 117 NORM
ENG108 2 2 2 100 NORM
ENG110 2 2 2 92 NORM
ENG112 2 1 2 94 NORM
ENG114 2 2 3 95 NORM
FRN102 2 1 1 240 NORM
ENG106 2 1 2 102 NORM
HDS102 3 2 3 161 NORM
HDS104 3 2 2 147 NORM
HDS106 3 2 2 143 NORM
HDS108 3 2 2 143 NORM
HDS110 2 1 2 25 NORM
HDS112 2 1 2 24 NORM
HDS114 2 1 2 126 NORM
HDS116 2 2 3 108 NORM
PHL102 2 2 2 177 NORM
PHL104 2 1 2 237 NORM
PHL106 2 2 1 208 NORM
PHL108 2 2 3 201 NORM
PHL110 2 3 2 159 NORM
PHL112 2 2 1 283 NORM
CRS102 3 1 2 32 NORM
CRS104 3 3 3 33 NORM
CRS106 3 2 3 32 NORM
CRS108 3 2 2 33 NORM
CRS110 2 1 2 48 NORM
CRS112 2 1 1 50 NORM
CRS114 2 2 2 48 NORM
CRS116 2 2 3 49 NORM
PSC112 3 3 3 118 NORM
PSC122 3 1 2 209 NORM
PSC124 2 2 2 117 NORM
PUB174 3 2 2 103 NORM
PUB176 2 2 2 172 NORM
PUB178 3 2 2 173 NORM
PUB172 3 1 2 371 NORM
SOC108 3 2 3 208 NORM
SOC104 2 2 2 110 NORM
SOC110 2 2 2 117 NORM
SOC112 2 2 2 120 NORM
SOC102 3 2 2 637 NORM
SOC106 3 2 2 328 NORM
LAW102 2 2 4 12 NORM

ROOMS:
A1 45 NORM
A2 45 NORM
A3 45 NORM
B1 50 NORM
B2 50 NORM
B3 50 NORM
C1 50 NORM
C2 50 NORM
C3 50 NORM
PDH 100 NORM
LT1 600 NORM
LT2 600 NORM
MPB101 150 NORM
MPB001 60 NORM
MPB002 60 NORM
BIOLAB 40 PRAC
CHMLAB 40 PRAC
PHYLAB 40 PRAC

CURRICULA:
cur1 2 BIO102 BIO108
cur2 3 CHM102 CHM104 CHM108
cur3 2 MTH102 MTH104
cur4 2 CSC102 CSC104
cur5 2 GST102 GST106
cur6 2 PHY102 PHY108
cur7 2 EDU102 EDU104
cur8 6 PHL102 PHL104 PHL106 PHL108 PHL110 PHL112
cur9 3 ADE102 ADE104 ADE106
cur10 5 LIS102 LIS104 LIS106 LIS108 LIS110
cur11 4 PED102 PED104 PED106 PED108
cur12 4 HED102 HED104 HED106 HED108
cur13 3 STA112 STA122 STA164
cur14 3 HTM112 HTM114 HTM116
cur15 2 ACC102 ACC104
cur16 13 BIO102 BIO108 CHM102 CHM104 CHM108 MTH102 MTH104 GST102 GST106 PHY102 PHY108 EDU102 EDU104 
cur17 2 BAF102 BAF104
cur18 2 BUS102 BUS104
cur19 3 ECO102 ECO104 ECO106
cur20 7 ENG102 ENG104 ENG106 ENG108 ENG110 ENG112 ENG114
cur21 8 HDS102 HDS104 HDS106 HDS108 HDS110 HDS112 HDS114 HDS116
cur22 8 CRS102 CRS104 CRS106 CRS108 CRS110 CRS112 CRS114 CRS116
cur23 3 PSC112 PSC122 PSC124
cur24 4 PUB172 PUB174 PUB176 PUB178
cur25 6 SOC102 SOC104 SOC106 SOC108 SOC110 SOC112
cur26 1 LAW102
cur27 10 EDU102 EDU104 ADE102 ADE104 ADE106 LIS102 LIS104 LIS106 LIS108 LIS110

END.